c Generated map
c Size: 13 * 13, weights in range: 1 to 10, walls: False, with ratio 0.0
c dim 2 of 5
c
p sp 169 312
c graph contains 169 nodes and 312 arcs
c
a 1 14 8
a 14 1 8
a 1 2 6
a 2 1 6
a 2 15 1
a 15 2 1
a 2 3 7
a 3 2 7
a 3 16 3
a 16 3 3
a 3 4 10
a 4 3 10
a 4 17 9
a 17 4 9
a 4 5 9
a 5 4 9
a 5 18 8
a 18 5 8
a 5 6 6
a 6 5 6
a 6 19 9
a 19 6 9
a 6 7 10
a 7 6 10
a 7 20 7
a 20 7 7
a 7 8 6
a 8 7 6
a 8 21 2
a 21 8 2
a 8 9 9
a 9 8 9
a 9 22 1
a 22 9 1
a 9 10 3
a 10 9 3
a 10 23 3
a 23 10 3
a 10 11 4
a 11 10 4
a 11 24 8
a 24 11 8
a 11 12 1
a 12 11 1
a 12 25 6
a 25 12 6
a 12 13 1
a 13 12 1
a 13 26 8
a 26 13 8
a 14 27 4
a 27 14 4
a 14 15 6
a 15 14 6
a 15 28 9
a 28 15 9
a 15 16 10
a 16 15 10
a 16 29 3
a 29 16 3
a 16 17 2
a 17 16 2
a 17 30 1
a 30 17 1
a 17 18 4
a 18 17 4
a 18 31 4
a 31 18 4
a 18 19 8
a 19 18 8
a 19 32 8
a 32 19 8
a 19 20 9
a 20 19 9
a 20 33 6
a 33 20 6
a 20 21 6
a 21 20 6
a 21 34 1
a 34 21 1
a 21 22 5
a 22 21 5
a 22 35 1
a 35 22 1
a 22 23 3
a 23 22 3
a 23 36 4
a 36 23 4
a 23 24 4
a 24 23 4
a 24 37 7
a 37 24 7
a 24 25 7
a 25 24 7
a 25 38 6
a 38 25 6
a 25 26 8
a 26 25 8
a 26 39 6
a 39 26 6
a 27 40 7
a 40 27 7
a 27 28 5
a 28 27 5
a 28 41 3
a 41 28 3
a 28 29 3
a 29 28 3
a 29 42 5
a 42 29 5
a 29 30 3
a 30 29 3
a 30 43 10
a 43 30 10
a 30 31 5
a 31 30 5
a 31 44 7
a 44 31 7
a 31 32 9
a 32 31 9
a 32 45 9
a 45 32 9
a 32 33 10
a 33 32 10
a 33 46 8
a 46 33 8
a 33 34 2
a 34 33 2
a 34 47 4
a 47 34 4
a 34 35 3
a 35 34 3
a 35 48 3
a 48 35 3
a 35 36 5
a 36 35 5
a 36 49 9
a 49 36 9
a 36 37 10
a 37 36 10
a 37 50 2
a 50 37 2
a 37 38 7
a 38 37 7
a 38 51 2
a 51 38 2
a 38 39 3
a 39 38 3
a 39 52 7
a 52 39 7
a 40 53 1
a 53 40 1
a 40 41 10
a 41 40 10
a 41 54 4
a 54 41 4
a 41 42 7
a 42 41 7
a 42 55 3
a 55 42 3
a 42 43 4
a 43 42 4
a 43 56 3
a 56 43 3
a 43 44 3
a 44 43 3
a 44 57 2
a 57 44 2
a 44 45 10
a 45 44 10
a 45 58 5
a 58 45 5
a 45 46 5
a 46 45 5
a 46 59 2
a 59 46 2
a 46 47 8
a 47 46 8
a 47 60 8
a 60 47 8
a 47 48 4
a 48 47 4
a 48 61 7
a 61 48 7
a 48 49 5
a 49 48 5
a 49 62 4
a 62 49 4
a 49 50 9
a 50 49 9
a 50 63 10
a 63 50 10
a 50 51 4
a 51 50 4
a 51 64 3
a 64 51 3
a 51 52 9
a 52 51 9
a 52 65 1
a 65 52 1
a 53 66 7
a 66 53 7
a 53 54 9
a 54 53 9
a 54 67 7
a 67 54 7
a 54 55 2
a 55 54 2
a 55 68 9
a 68 55 9
a 55 56 4
a 56 55 4
a 56 69 6
a 69 56 6
a 56 57 3
a 57 56 3
a 57 70 6
a 70 57 6
a 57 58 9
a 58 57 9
a 58 71 8
a 71 58 8
a 58 59 1
a 59 58 1
a 59 72 4
a 72 59 4
a 59 60 1
a 60 59 1
a 60 73 3
a 73 60 3
a 60 61 1
a 61 60 1
a 61 74 2
a 74 61 2
a 61 62 10
a 62 61 10
a 62 75 5
a 75 62 5
a 62 63 8
a 63 62 8
a 63 76 4
a 76 63 4
a 63 64 5
a 64 63 5
a 64 77 6
a 77 64 6
a 64 65 1
a 65 64 1
a 65 78 2
a 78 65 2
a 66 79 8
a 79 66 8
a 66 67 6
a 67 66 6
a 67 80 4
a 80 67 4
a 67 68 8
a 68 67 8
a 68 81 4
a 81 68 4
a 68 69 1
a 69 68 1
a 69 82 2
a 82 69 2
a 69 70 10
a 70 69 10
a 70 83 2
a 83 70 2
a 70 71 8
a 71 70 8
a 71 84 8
a 84 71 8
a 71 72 10
a 72 71 10
a 72 85 6
a 85 72 6
a 72 73 2
a 73 72 2
a 73 86 2
a 86 73 2
a 73 74 4
a 74 73 4
a 74 87 2
a 87 74 2
a 74 75 6
a 75 74 6
a 75 88 3
a 88 75 3
a 75 76 8
a 76 75 8
a 76 89 3
a 89 76 3
a 76 77 2
a 77 76 2
a 77 90 3
a 90 77 3
a 77 78 3
a 78 77 3
a 78 91 5
a 91 78 5
a 79 92 3
a 92 79 3
a 79 80 7
a 80 79 7
a 80 93 2
a 93 80 2
a 80 81 7
a 81 80 7
a 81 94 9
a 94 81 9
a 81 82 6
a 82 81 6
a 82 95 4
a 95 82 4
a 82 83 3
a 83 82 3
a 83 96 9
a 96 83 9
a 83 84 3
a 84 83 3
a 84 97 2
a 97 84 2
a 84 85 3
a 85 84 3
a 85 98 2
a 98 85 2
a 85 86 6
a 86 85 6
a 86 99 10
a 99 86 10
a 86 87 9
a 87 86 9
a 87 100 10
a 100 87 10
a 87 88 4
a 88 87 4
a 88 101 10
a 101 88 10
a 88 89 4
a 89 88 4
a 89 102 5
a 102 89 5
a 89 90 5
a 90 89 5
a 90 103 3
a 103 90 3
a 90 91 10
a 91 90 10
a 91 104 5
a 104 91 5
a 92 105 6
a 105 92 6
a 92 93 8
a 93 92 8
a 93 106 10
a 106 93 10
a 93 94 2
a 94 93 2
a 94 107 5
a 107 94 5
a 94 95 4
a 95 94 4
a 95 108 3
a 108 95 3
a 95 96 10
a 96 95 10
a 96 109 7
a 109 96 7
a 96 97 7
a 97 96 7
a 97 110 10
a 110 97 10
a 97 98 7
a 98 97 7
a 98 111 2
a 111 98 2
a 98 99 9
a 99 98 9
a 99 112 2
a 112 99 2
a 99 100 8
a 100 99 8
a 100 113 4
a 113 100 4
a 100 101 3
a 101 100 3
a 101 114 8
a 114 101 8
a 101 102 6
a 102 101 6
a 102 115 4
a 115 102 4
a 102 103 2
a 103 102 2
a 103 116 7
a 116 103 7
a 103 104 1
a 104 103 1
a 104 117 9
a 117 104 9
a 105 118 8
a 118 105 8
a 105 106 5
a 106 105 5
a 106 119 8
a 119 106 8
a 106 107 1
a 107 106 1
a 107 120 10
a 120 107 10
a 107 108 2
a 108 107 2
a 108 121 5
a 121 108 5
a 108 109 4
a 109 108 4
a 109 122 5
a 122 109 5
a 109 110 4
a 110 109 4
a 110 123 2
a 123 110 2
a 110 111 5
a 111 110 5
a 111 124 4
a 124 111 4
a 111 112 4
a 112 111 4
a 112 125 9
a 125 112 9
a 112 113 8
a 113 112 8
a 113 126 3
a 126 113 3
a 113 114 8
a 114 113 8
a 114 127 7
a 127 114 7
a 114 115 1
a 115 114 1
a 115 128 3
a 128 115 3
a 115 116 3
a 116 115 3
a 116 129 2
a 129 116 2
a 116 117 5
a 117 116 5
a 117 130 4
a 130 117 4
a 118 131 10
a 131 118 10
a 118 119 1
a 119 118 1
a 119 132 9
a 132 119 9
a 119 120 3
a 120 119 3
a 120 133 4
a 133 120 4
a 120 121 4
a 121 120 4
a 121 134 10
a 134 121 10
a 121 122 8
a 122 121 8
a 122 135 2
a 135 122 2
a 122 123 8
a 123 122 8
a 123 136 8
a 136 123 8
a 123 124 8
a 124 123 8
a 124 137 2
a 137 124 2
a 124 125 7
a 125 124 7
a 125 138 2
a 138 125 2
a 125 126 3
a 126 125 3
a 126 139 7
a 139 126 7
a 126 127 10
a 127 126 10
a 127 140 10
a 140 127 10
a 127 128 3
a 128 127 3
a 128 141 5
a 141 128 5
a 128 129 4
a 129 128 4
a 129 142 9
a 142 129 9
a 129 130 4
a 130 129 4
a 130 143 9
a 143 130 9
a 131 144 2
a 144 131 2
a 131 132 6
a 132 131 6
a 132 145 1
a 145 132 1
a 132 133 2
a 133 132 2
a 133 146 1
a 146 133 1
a 133 134 10
a 134 133 10
a 134 147 2
a 147 134 2
a 134 135 7
a 135 134 7
a 135 148 8
a 148 135 8
a 135 136 8
a 136 135 8
a 136 149 2
a 149 136 2
a 136 137 2
a 137 136 2
a 137 150 5
a 150 137 5
a 137 138 2
a 138 137 2
a 138 151 1
a 151 138 1
a 138 139 6
a 139 138 6
a 139 152 9
a 152 139 9
a 139 140 7
a 140 139 7
a 140 153 2
a 153 140 2
a 140 141 2
a 141 140 2
a 141 154 2
a 154 141 2
a 141 142 1
a 142 141 1
a 142 155 7
a 155 142 7
a 142 143 10
a 143 142 10
a 143 156 10
a 156 143 10
a 144 157 5
a 157 144 5
a 144 145 2
a 145 144 2
a 145 158 7
a 158 145 7
a 145 146 3
a 146 145 3
a 146 159 8
a 159 146 8
a 146 147 10
a 147 146 10
a 147 160 3
a 160 147 3
a 147 148 8
a 148 147 8
a 148 161 10
a 161 148 10
a 148 149 3
a 149 148 3
a 149 162 10
a 162 149 10
a 149 150 9
a 150 149 9
a 150 163 3
a 163 150 3
a 150 151 3
a 151 150 3
a 151 164 5
a 164 151 5
a 151 152 2
a 152 151 2
a 152 165 2
a 165 152 2
a 152 153 9
a 153 152 9
a 153 166 6
a 166 153 6
a 153 154 8
a 154 153 8
a 154 167 2
a 167 154 2
a 154 155 9
a 155 154 9
a 155 168 7
a 168 155 7
a 155 156 8
a 156 155 8
a 156 169 6
a 169 156 6
a 157 158 3
a 158 157 3
a 158 159 1
a 159 158 1
a 159 160 1
a 160 159 1
a 160 161 5
a 161 160 5
a 161 162 7
a 162 161 7
a 162 163 7
a 163 162 7
a 163 164 8
a 164 163 8
a 164 165 8
a 165 164 8
a 165 166 5
a 166 165 5
a 166 167 7
a 167 166 7
a 167 168 9
a 168 167 9
a 168 169 8
a 169 168 8
